127 130037
1 16 51 57 121 5 52 124 56 47 49 53 118 48 46 94 112 111 107 127 93 103 45 44 54 55 66 113 65 99 92 89 125 104 71 70 69 68 74 73 67 8 9 11 114 106 6 24 23 4 20 22 21 17 79 80 78 117 84 81 126 82 83 102 101 98 97 123 95 42 39 34 38 33 28 122 32 29 25 26 27 31 12 14 41 30 43 40 35 36 37 2 50 13 115 120 10 3 100 64 58 91 61 90 116 60 62 59 110 86 85 87 88 109 96 119 63 75 76 77 18 72 19 108 15 105 7 
